c instance by G2
c solution = 010100011010101100010100100100
c Known solution cost is 4971 
p cnf 30 30
w 662 186 354 545 454 238 87 596 430 80 297 953 145 511 123 584 747 9 285 240 888 808 384 956 613 774 75 404 624 708
-12 10 -2 0
29 -9 22 0
21 11 18 0
-24 -9 -28 0
7 -26 21 0
4 19 26 0
-29 7 26 0
-6 -8 3 0
1 29 -5 0
30 17 -21 0
26 3 28 0
-14 -2 29 0
-19 6 29 0
-4 3 9 0
19 21 25 0
-17 30 -8 0
21 -28 2 0
23 -7 10 0
16 29 -22 0
-22 21 -30 0
20 -28 24 0
8 23 10 0
3 -13 -18 0
-15 -2 -23 0
15 12 -4 0
23 -27 -16 0
-20 -10 7 0
-1 26 17 0
30 19 -3 0
13 -4 -15 0
